NAME 
ROWS
 N  OBJ
 L  R0      
 L  R1      
 E  R2      
 E  R3      
 E  R4      
 E  R5      
 E  R6      
 E  R7      
 E  R8      
 E  R9      
 E  R10     
 E  R11     
 E  R12     
 E  R13     
 E  R14     
 E  R15     
 E  R16     
COLUMNS
    MARKER    'MARKER'                 'INTORG'
    I0(8)     OBJ       112
    I0(8)     R0        -34
    I0(8)     R1        164
    I0(8)     R2        9
    I0(8)     R3        1
    I0(8)     R5        7
    I0(8)     R6        6
    I0(8)     R8        18
    I0(8)     R16       1
    I1(7)     OBJ       92
    I1(7)     R0        161
    I1(7)     R1        -5
    I1(7)     R2        7
    I1(7)     R3        6
    I1(7)     R4        1
    I1(7)     R6        16
    I1(7)     R16       1
    I2(9)     OBJ       -117
    I2(9)     R0        162
    I2(9)     R1        -172
    I2(9)     R2        -1
    I2(9)     R3        14
    I2(9)     R4        9
    I2(9)     R5        6
    I2(9)     R7        2
    I2(9)     R8        15
    I2(9)     R16       1
    I3(8)     OBJ       -135
    I3(8)     R0        -102
    I3(8)     R1        2
    I3(8)     R4        8
    I3(8)     R5        3
    I3(8)     R6        14
    I3(8)     R7        11
    I3(8)     R8        18
    I3(8)     R16       1
    I4(7)     OBJ       79
    I4(7)     R0        117
    I4(7)     R1        125
    I4(7)     R2        5
    I4(7)     R3        12
    I4(7)     R5        10
    I4(7)     R7        1
    I4(7)     R16       1
    I5(9)     OBJ       51
    I5(9)     R0        -72
    I5(9)     R1        -105
    I5(9)     R2        17
    I5(9)     R3        15
    I5(9)     R4        16
    I5(9)     R5        15
    I5(9)     R7        -1
    I5(9)     R8        4
    I5(9)     R16       1
    I6(8)     OBJ       -171
    I6(8)     R0        -184
    I6(8)     R1        -108
    I6(8)     R3        11
    I6(8)     R4        2
    I6(8)     R5        12
    I6(8)     R6        1
    I6(8)     R7        2
    I6(8)     R16       1
    MARKER    'MARKER'                 'INTEND'
    C7(15)    OBJ       3
    C7(15)    R0        7
    C7(15)    R1        -1
    C7(15)    R2        -1
    C7(15)    R3        6
    C7(15)    R4        17
    C7(15)    R5        16
    C7(15)    R6        8
    C7(15)    R7        7
    C7(15)    R8        11
    C7(15)    R9        7
    C7(15)    R11       5
    C7(15)    R12       11
    C7(15)    R13       2
    C7(15)    R14       8
    C7(15)    R15       3
    C8(12)    OBJ       -8
    C8(12)    R1        -9
    C8(12)    R2        10
    C8(12)    R5        8
    C8(12)    R6        15
    C8(12)    R8        12
    C8(12)    R9        9
    C8(12)    R10       6
    C8(12)    R11       12
    C8(12)    R12       7
    C8(12)    R13       12
    C8(12)    R14       4
    C8(12)    R15       4
    C9(12)    OBJ       5
    C9(12)    R0        9
    C9(12)    R1        -6
    C9(12)    R2        5
    C9(12)    R3        1
    C9(12)    R4        17
    C9(12)    R5        6
    C9(12)    R8        6
    C9(12)    R9        7
    C9(12)    R12       7
    C9(12)    R13       10
    C9(12)    R14       4
    C9(12)    R15       13
    C10(15)   OBJ       -7
    C10(15)   R0        8
    C10(15)   R1        7
    C10(15)   R2        19
    C10(15)   R3        14
    C10(15)   R4        4
    C10(15)   R5        16
    C10(15)   R6        9
    C10(15)   R7        9
    C10(15)   R8        2
    C10(15)   R10       -1
    C10(15)   R11       10
    C10(15)   R12       2
    C10(15)   R13       19
    C10(15)   R14       5
    C10(15)   R15       15
    C11(11)   OBJ       4
    C11(11)   R0        2
    C11(11)   R1        -9
    C11(11)   R3        1
    C11(11)   R5        11
    C11(11)   R6        7
    C11(11)   R7        10
    C11(11)   R11       15
    C11(11)   R12       3
    C11(11)   R13       11
    C11(11)   R14       4
    C11(11)   R15       19
    C12(16)   OBJ       -3
    C12(16)   R0        -5
    C12(16)   R1        -4
    C12(16)   R2        19
    C12(16)   R3        15
    C12(16)   R4        6
    C12(16)   R5        13
    C12(16)   R6        10
    C12(16)   R7        15
    C12(16)   R8        17
    C12(16)   R9        4
    C12(16)   R10       13
    C12(16)   R11       5
    C12(16)   R12       12
    C12(16)   R13       5
    C12(16)   R14       9
    C12(16)   R15       12
    C13(14)   OBJ       -9
    C13(14)   R0        -3
    C13(14)   R1        9
    C13(14)   R2        6
    C13(14)   R3        1
    C13(14)   R4        17
    C13(14)   R5        13
    C13(14)   R6        16
    C13(14)   R8        -1
    C13(14)   R9        5
    C13(14)   R10       16
    C13(14)   R11       15
    C13(14)   R12       4
    C13(14)   R13       1
    C13(14)   R14       13
    C14(12)   OBJ       -4
    C14(12)   R0        3
    C14(12)   R2        14
    C14(12)   R3        11
    C14(12)   R6        5
    C14(12)   R7        11
    C14(12)   R8        1
    C14(12)   R9        12
    C14(12)   R10       1
    C14(12)   R11       -1
    C14(12)   R13       18
    C14(12)   R14       13
    C14(12)   R15       18
    C15(1)    R2        1
    C16(1)    R3        1
    C17(1)    R4        1
    C18(1)    R5        1
    C19(1)    R6        1
    C20(1)    R7        1
    C21(1)    R8        1
    C22(1)    R9        1
    C23(1)    R10       1
    C24(1)    R11       1
    C25(1)    R12       1
    C26(1)    R13       1
    C27(1)    R14       1
    C28(1)    R15       1
    C29(1)    R16       1
RHS
    RHS1      R0        -3.7039747029513217e+02
    RHS1      R1        -1.7673047144499776e+02
    RHS1      R2        58
    RHS1      R3        55
    RHS1      R4        83
    RHS1      R5        97
    RHS1      R6        80
    RHS1      R7        62
    RHS1      R8        77
    RHS1      R9        71
    RHS1      R10       65
    RHS1      R11       65
    RHS1      R12       62
    RHS1      R13       52
    RHS1      R14       97
    RHS1      R15       59
    RHS1      R16       2
BOUNDS
 UP BND1      I0(8)     2
 UP BND1      I1(7)     2
 UP BND1      I2(9)     2
 UP BND1      I3(8)     2
 UP BND1      I4(7)     2
 UP BND1      I5(9)     2
 UP BND1      I6(8)     2
ENDATA
